c WARNING: for repeatability, setting FPU to use double precision
d VARIABLES            197920       
d CONSTRAINTS          900801       
c ============================[ Problem Statistics ]=============================
c |                                                                             |
c |  Number of variables:        197920                                         |
c |  Number of clauses:          900801                                         |
c |  Parse time:                   0.14 s                                       |
c |                                                                             |
c ============================[ Search Statistics ]==============================
c | Conflicts |          ORIGINAL         |          LEARNT          | Progress |
c |           |    Vars  Clauses Literals |    Limit  Clauses Lit/Cl |          |
c ===============================================================================
c |       100 |  173541   831317  2011258 |   304816      100      9 | 12.318 % |
c |       250 |  173541   831317  2011258 |   335297      250     34 | 12.318 % |
c |       475 |  173541   831317  2011258 |   368827      475     42 | 12.318 % |
c |       812 |  173541   831317  2011258 |   405710      812     53 | 12.318 % |
c |      1318 |  173541   831317  2011258 |   446281     1318     81 | 12.318 % |
c |      2077 |  173541   831317  2011258 |   490909     2077     86 | 12.318 % |
c |      3216 |  173541   831317  2011258 |   540000     3216    102 | 12.318 % |
c |      4924 |  173541   831317  2011258 |   594000     4924     96 | 12.318 % |
c |      7486 |  173541   831317  2011258 |   653400     7486    151 | 12.318 % |
c |     11330 |  173541   831317  2011258 |   718740    11330    182 | 12.318 % |
c |     17096 |  173541   831317  2011258 |   790614    17096    187 | 12.318 % |
c |     25745 |  173541   831317  2011258 |   869676    25745    169 | 12.318 % |
c |     38719 |  173541   831317  2011258 |   956643    38719    188 | 12.318 % |
c |     58180 |  173541   831317  2011258 |  1052308    58180    185 | 12.318 % |
c |     87372 |  173539   831293  2011200 |  1157539    87331    190 | 12.319 % |
c |    131161 |  173538   831283  2011176 |  1273293   131115    217 | 12.319 % |
c |    196845 |  173537   831271  2011147 |  1400622   196708    203 | 12.320 % |
c |    295371 |  173535   831247  2011089 |  1540684   295179    188 | 12.321 % |
c |    443160 |  173518   831059  2010637 |  1694753   441698    184 | 12.329 % |
c ===============================================================================
c restarts              : 1085
c conflicts             : 527627         (1132 /sec)
c decisions             : 2006797        (0.00 % random) (4304 /sec)
c propagations          : 1351778043     (2899012 /sec)
c conflict literals     : 105857011      (35.39 % deleted)
d RESTARTS             1085
d FAILURES             527627       
d NODES                2006797      
d BACKTRACKS           2006797      
d PROPAGATIONS         1351778043   
d NOGOODSIZE           200.63 
d MEMORY               636.00 
d TIME                 466.289 

s UNSATISFIABLE
